
<<< setup


<<< generate

Version identifier: 22.1.1.0 | 2022-11-28 | 9160aff4d
CPXPARAM_TimeLimit                               1800
Found incumbent of value 0.000000 after 0.00 sec. (0.90 ticks)
Tried aggregator 7 times.
MIP Presolve eliminated 86607 rows and 1539 columns.
MIP Presolve modified 4998 coefficients.
Aggregator did 2222 substitutions.
Reduced MIP has 5701 rows, 10679 columns, and 83405 nonzeros.
Reduced MIP has 10679 binaries, 0 generals, 0 SOSs, and 0 indicators.
Presolve time = 0.23 sec. (507.85 ticks)
Probing time = 0.01 sec. (11.30 ticks)
Tried aggregator 3 times.
MIP Presolve eliminated 323 rows and 0 columns.
Aggregator did 4998 substitutions.
Reduced MIP has 380 rows, 5681 columns, and 67970 nonzeros.
Reduced MIP has 5681 binaries, 0 generals, 0 SOSs, and 0 indicators.
Presolve time = 0.06 sec. (137.24 ticks)
Tried aggregator 1 time.
Detecting symmetries...
Reduced MIP has 380 rows, 5681 columns, and 67970 nonzeros.
Reduced MIP has 5681 binaries, 0 generals, 0 SOSs, and 0 indicators.
Presolve time = 0.03 sec. (77.58 ticks)
Probing time = 0.00 sec. (7.24 ticks)
Clique table members: 6290.
MIP emphasis: balance optimality and feasibility.
MIP search method: dynamic search.
Parallel mode: deterministic, using up to 8 threads.
Root relaxation solution time = 0.11 sec. (252.69 ticks)

        Nodes                                         Cuts/
   Node  Left     Objective  IInf  Best Integer    Best Bound    ItCnt     Gap

*     0+    0                            0.0000     8973.0000              --- 
*     0+    0                           35.0000     8973.0000              --- 
      0     0        cutoff             35.0000       35.0000       38    0.00%
      0     0        cutoff             35.0000       35.0000       38    0.00%
Elapsed time = 0.47 sec. (1033.91 ticks, tree = 0.01 MB, solutions = 1)

Root node processing (before b&c):
  Real time             =    0.47 sec. (1034.40 ticks)
Parallel b&c, 8 threads:
  Real time             =    0.00 sec. (0.00 ticks)
  Sync time (average)   =    0.00 sec.
  Wait time (average)   =    0.00 sec.
                          ------------
Total (root+branch&cut) =    0.47 sec. (1034.40 ticks)

<<< solve


OBJECTIVE: 35

<<< post process


<<< done

